DIMACS_lns/graph-1000-586.col
p edge 1000 1834
e 1 267
e 1 269
e 1 6
e 2 972
e 2 23
e 2 316
e 2 887
e 3 120
e 3 487
e 3 617
e 3 653
e 3 423
e 3 313
e 3 985
e 3 980
e 4 453
e 4 884
e 4 686
e 5 854
e 5 725
e 5 51
e 5 295
e 5 837
e 5 49
e 6 23
e 6 242
e 6 9
e 7 97
e 7 788
e 7 314
e 8 61
e 8 482
e 8 46
e 8 399
e 8 65
e 9 117
e 9 595
e 9 27
e 9 88
e 10 171
e 10 66
e 10 789
e 10 316
e 10 507
e 10 441
e 10 489
e 10 472
e 11 988
e 11 845
e 11 471
e 11 935
e 11 467
e 11 527
e 11 382
e 13 696
e 13 460
e 13 214
e 13 446
e 14 104
e 14 724
e 14 901
e 14 431
e 14 365
e 15 591
e 15 254
e 15 302
e 16 861
e 16 431
e 16 902
e 16 360
e 17 742
e 17 257
e 17 560
e 18 733
e 18 507
e 18 101
e 18 968
e 18 316
e 18 245
e 19 893
e 19 207
e 19 560
e 19 372
e 19 136
e 20 734
e 20 432
e 20 401
e 21 173
e 21 331
e 21 45
e 21 338
e 22 680
e 22 790
e 22 437
e 22 429
e 22 78
e 23 356
e 23 237
e 23 372
e 23 295
e 24 285
e 24 628
e 24 788
e 26 303
e 26 863
e 26 182
e 27 568
e 27 173
e 27 684
e 27 476
e 27 248
e 28 334
e 28 406
e 28 229
e 30 934
e 30 940
e 30 959
e 30 734
e 30 123
e 30 605
e 30 471
e 30 775
e 30 339
e 31 899
e 31 801
e 31 650
e 32 134
e 32 830
e 32 161
e 33 384
e 33 337
e 33 591
e 34 434
e 34 319
e 34 963
e 36 262
e 36 391
e 36 893
e 37 249
e 37 914
e 37 45
e 37 898
e 37 88
e 38 637
e 38 253
e 38 626
e 38 393
e 38 451
e 39 776
e 39 588
e 39 590
e 39 831
e 42 690
e 42 191
e 42 304
e 42 319
e 44 216
e 44 855
e 44 488
e 45 87
e 45 248
e 46 766
e 46 519
e 46 205
e 46 221
e 46 473
e 46 544
e 46 295
e 47 385
e 47 161
e 47 649
e 47 543
e 47 403
e 48 359
e 48 858
e 48 68
e 48 570
e 48 917
e 48 328
e 48 928
e 48 217
e 49 798
e 49 253
e 50 364
e 50 602
e 50 148
e 51 321
e 51 498
e 52 719
e 52 122
e 52 451
e 52 474
e 52 294
e 53 204
e 53 103
e 53 323
e 53 66
e 54 590
e 54 913
e 54 595
e 54 251
e 54 736
e 54 956
e 54 983
e 54 236
e 54 861
e 54 330
e 55 893
e 55 403
e 55 556
e 57 960
e 57 392
e 57 699
e 57 173
e 58 349
e 58 703
e 58 718
e 58 570
e 58 914
e 60 628
e 60 117
e 60 242
e 60 651
e 60 519
e 60 485
e 60 352
e 61 119
e 61 853
e 61 726
e 61 677
e 61 666
e 61 832
e 62 507
e 62 779
e 62 307
e 62 375
e 62 940
e 62 923
e 64 898
e 64 797
e 64 497
e 64 862
e 64 374
e 65 269
e 65 138
e 65 934
e 65 807
e 66 487
e 66 497
e 66 781
e 66 926
e 67 883
e 67 248
e 67 327
e 68 760
e 68 122
e 68 132
e 68 75
e 68 402
e 69 230
e 69 658
e 69 674
e 69 146
e 69 324
e 73 812
e 73 654
e 73 428
e 74 975
e 74 118
e 74 318
e 75 911
e 75 610
e 75 579
e 75 239
e 75 499
e 75 320
e 76 654
e 76 479
e 76 926
e 76 677
e 76 646
e 77 695
e 77 881
e 77 563
e 78 590
e 78 120
e 79 597
e 79 900
e 79 904
e 80 844
e 80 605
e 80 331
e 80 498
e 80 219
e 80 842
e 81 724
e 81 670
e 81 423
e 82 428
e 82 419
e 82 837
e 82 233
e 82 573
e 84 220
e 84 594
e 84 888
e 85 972
e 85 253
e 85 544
e 86 529
e 86 729
e 86 688
e 86 966
e 87 338
e 87 869
e 87 186
e 88 925
e 90 641
e 90 316
e 90 680
e 91 233
e 91 204
e 91 700
e 92 975
e 92 661
e 92 198
e 92 681
e 92 121
e 92 508
e 94 316
e 94 861
e 94 593
e 94 336
e 94 792
e 95 754
e 95 112
e 95 167
e 95 120
e 97 807
e 97 865
e 97 659
e 97 797
e 97 930
e 97 248
e 101 489
e 101 674
e 101 737
e 102 929
e 102 652
e 102 779
e 103 510
e 103 134
e 103 734
e 104 761
e 104 485
e 104 998
e 104 598
e 104 800
e 104 471
e 106 682
e 106 884
e 106 302
e 107 863
e 107 617
e 107 637
e 108 302
e 108 553
e 108 274
e 110 127
e 110 374
e 110 356
e 110 889
e 110 746
e 111 422
e 111 117
e 111 144
e 111 434
e 111 774
e 112 781
e 112 923
e 112 444
e 112 668
e 112 564
e 112 719
e 112 549
e 114 880
e 114 288
e 114 748
e 114 849
e 114 916
e 114 119
e 115 324
e 115 813
e 115 753
e 116 740
e 116 449
e 116 330
e 117 858
e 117 791
e 117 815
e 118 883
e 118 257
e 118 170
e 118 143
e 118 370
e 118 447
e 118 673
e 119 351
e 119 704
e 119 242
e 119 143
e 120 704
e 120 826
e 120 286
e 121 295
e 121 659
e 121 461
e 121 396
e 121 818
e 121 213
e 122 180
e 122 701
e 122 395
e 122 677
e 122 850
e 122 845
e 122 183
e 122 388
e 123 733
e 123 472
e 124 143
e 124 733
e 124 860
e 124 713
e 124 570
e 125 703
e 125 338
e 125 965
e 125 446
e 125 453
e 126 138
e 126 832
e 126 848
e 126 307
e 126 654
e 126 885
e 127 543
e 127 474
e 127 646
e 129 920
e 129 202
e 129 246
e 132 584
e 132 184
e 132 800
e 134 491
e 134 813
e 134 371
e 134 507
e 134 286
e 134 543
e 134 494
e 134 403
e 136 224
e 136 487
e 136 599
e 136 720
e 137 637
e 137 492
e 137 648
e 137 184
e 137 831
e 138 982
e 138 244
e 138 847
e 138 342
e 138 913
e 141 428
e 141 715
e 141 631
e 142 155
e 142 580
e 142 807
e 142 218
e 142 144
e 143 305
e 143 327
e 143 165
e 144 712
e 144 999
e 144 171
e 144 270
e 144 277
e 145 953
e 145 587
e 145 188
e 146 676
e 146 414
e 148 627
e 148 393
e 148 513
e 148 835
e 148 659
e 153 202
e 153 438
e 153 914
e 154 210
e 154 897
e 154 343
e 154 628
e 154 967
e 155 466
e 155 796
e 155 947
e 155 833
e 157 911
e 157 577
e 157 541
e 157 812
e 157 833
e 158 948
e 158 707
e 158 681
e 158 808
e 160 834
e 160 965
e 160 983
e 160 923
e 161 827
e 161 912
e 161 281
e 163 466
e 163 801
e 163 457
e 165 334
e 165 505
e 165 338
e 165 976
e 165 674
e 166 774
e 166 348
e 166 988
e 166 527
e 166 936
e 166 886
e 167 897
e 167 545
e 167 434
e 167 442
e 168 458
e 168 511
e 168 688
e 168 979
e 170 541
e 170 452
e 171 846
e 171 248
e 171 638
e 171 346
e 171 724
e 171 792
e 171 272
e 171 351
e 173 333
e 173 365
e 173 859
e 173 473
e 176 761
e 176 398
e 176 861
e 177 474
e 177 470
e 177 992
e 177 299
e 177 464
e 180 687
e 180 505
e 180 196
e 182 580
e 182 245
e 182 217
e 183 427
e 183 701
e 183 341
e 183 795
e 183 275
e 183 682
e 184 982
e 184 570
e 184 688
e 184 964
e 185 190
e 185 711
e 185 656
e 186 490
e 186 705
e 186 756
e 186 899
e 188 508
e 188 473
e 190 440
e 190 371
e 190 582
e 190 699
e 190 467
e 191 887
e 191 785
e 191 761
e 191 457
e 192 515
e 192 962
e 192 198
e 192 791
e 194 986
e 194 507
e 194 583
e 194 422
e 195 913
e 195 705
e 195 900
e 195 855
e 196 392
e 196 303
e 196 831
e 196 714
e 196 983
e 198 796
e 198 272
e 198 632
e 200 286
e 200 735
e 200 378
e 200 649
e 201 627
e 201 500
e 201 901
e 202 917
e 202 997
e 204 748
e 204 783
e 204 524
e 205 883
e 205 737
e 205 245
e 205 217
e 205 648
e 205 996
e 206 586
e 206 408
e 206 887
e 206 609
e 207 834
e 207 263
e 207 798
e 209 468
e 209 370
e 209 813
e 209 281
e 209 968
e 210 648
e 210 913
e 213 624
e 213 314
e 213 753
e 214 320
e 214 695
e 214 415
e 215 550
e 215 577
e 215 337
e 216 872
e 216 414
e 216 500
e 216 251
e 217 734
e 217 633
e 218 918
e 218 953
e 218 685
e 218 523
e 218 839
e 219 249
e 219 632
e 219 379
e 219 364
e 219 657
e 219 596
e 220 581
e 220 787
e 220 898
e 221 271
e 221 630
e 221 750
e 221 796
e 223 633
e 223 457
e 223 265
e 224 281
e 224 594
e 224 790
e 225 897
e 225 282
e 225 599
e 227 747
e 227 998
e 227 761
e 227 791
e 229 702
e 229 861
e 229 505
e 229 630
e 230 455
e 230 487
e 231 996
e 231 654
e 231 611
e 233 300
e 233 964
e 233 408
e 233 312
e 235 333
e 235 770
e 235 667
e 235 372
e 235 982
e 236 498
e 236 613
e 236 576
e 236 659
e 237 396
e 237 337
e 238 987
e 238 563
e 238 450
e 238 357
e 238 739
e 239 743
e 239 766
e 239 971
e 239 631
e 240 884
e 240 742
e 240 445
e 240 950
e 240 254
e 241 627
e 241 887
e 241 921
e 241 724
e 242 587
e 244 297
e 244 648
e 244 736
e 244 871
e 244 792
e 245 312
e 245 275
e 245 313
e 246 735
e 246 533
e 246 529
e 247 885
e 247 707
e 247 633
e 247 363
e 247 558
e 247 801
e 247 600
e 248 641
e 248 719
e 249 629
e 249 634
e 249 378
e 249 624
e 249 513
e 250 375
e 250 994
e 250 438
e 250 442
e 251 370
e 251 680
e 252 426
e 252 555
e 252 791
e 252 253
e 253 468
e 253 652
e 253 267
e 253 658
e 253 694
e 253 642
e 253 261
e 253 565
e 254 778
e 254 797
e 254 547
e 254 356
e 254 993
e 254 867
e 257 644
e 257 410
e 257 575
e 257 383
e 258 581
e 258 497
e 258 794
e 258 674
e 258 703
e 259 274
e 259 445
e 259 577
e 259 998
e 261 995
e 261 262
e 262 908
e 262 735
e 262 524
e 262 385
e 262 588
e 262 468
e 263 630
e 263 349
e 264 300
e 264 665
e 264 406
e 265 971
e 265 909
e 265 641
e 265 597
e 265 482
e 266 628
e 266 609
e 266 880
e 266 690
e 266 818
e 267 642
e 267 573
e 267 813
e 268 408
e 268 656
e 268 962
e 269 430
e 269 707
e 269 483
e 269 309
e 269 343
e 270 869
e 270 793
e 270 376
e 270 930
e 270 806
e 271 290
e 271 926
e 271 331
e 271 500
e 272 837
e 272 739
e 274 479
e 274 395
e 274 676
e 275 387
e 276 807
e 276 987
e 276 723
e 276 905
e 277 406
e 277 657
e 277 339
e 278 940
e 278 773
e 278 452
e 278 359
e 281 418
e 281 862
e 281 789
e 281 774
e 281 666
e 281 535
e 282 597
e 282 606
e 282 756
e 282 774
e 282 381
e 283 793
e 283 900
e 283 959
e 283 899
e 285 582
e 285 446
e 285 726
e 285 403
e 285 932
e 286 372
e 286 573
e 286 668
e 286 529
e 288 399
e 288 482
e 288 615
e 288 453
e 290 324
e 290 780
e 293 851
e 293 382
e 293 956
e 294 343
e 294 555
e 294 680
e 295 871
e 295 468
e 295 527
e 295 996
e 297 457
e 297 925
e 297 467
e 297 604
e 299 593
e 299 414
e 299 599
e 300 582
e 300 742
e 300 773
e 300 718
e 302 743
e 302 816
e 302 591
e 303 929
e 303 513
e 303 485
e 303 957
e 304 353
e 304 493
e 304 884
e 304 684
e 304 878
e 305 309
e 305 650
e 305 382
e 307 666
e 307 848
e 307 911
e 307 636
e 307 532
e 308 905
e 308 918
e 308 394
e 308 649
e 309 379
e 309 994
e 309 684
e 310 595
e 310 335
e 310 702
e 310 624
e 310 430
e 310 538
e 310 816
e 312 611
e 312 464
e 312 633
e 313 587
e 313 916
e 314 450
e 316 488
e 316 887
e 316 853
e 316 563
e 318 977
e 318 883
e 318 380
e 319 702
e 319 348
e 319 576
e 320 438
e 320 732
e 321 365
e 321 628
e 321 827
e 322 634
e 322 439
e 322 648
e 323 969
e 323 859
e 324 717
e 324 491
e 327 997
e 327 959
e 328 433
e 328 799
e 328 835
e 328 850
e 330 931
e 330 1000
e 331 533
e 332 520
e 332 742
e 332 563
e 332 733
e 333 615
e 333 463
e 334 956
e 334 463
e 334 439
e 335 885
e 335 402
e 335 591
e 335 423
e 336 602
e 336 936
e 336 532
e 336 778
e 337 510
e 337 684
e 339 369
e 341 584
e 341 796
e 342 960
e 342 574
e 342 494
e 343 639
e 343 892
e 345 881
e 345 700
e 345 793
e 345 791
e 345 667
e 346 914
e 346 950
e 346 577
e 348 699
e 348 539
e 348 427
e 349 905
e 349 522
e 350 957
e 350 694
e 350 934
e 350 860
e 351 978
e 351 904
e 351 613
e 352 468
e 352 954
e 352 580
e 352 522
e 353 866
e 353 813
e 353 451
e 356 433
e 356 968
e 356 383
e 356 743
e 357 718
e 357 892
e 357 684
e 357 631
e 359 596
e 359 423
e 360 459
e 360 438
e 360 372
e 362 654
e 362 743
e 362 546
e 362 665
e 362 985
e 363 584
e 363 827
e 364 751
e 365 644
e 365 995
e 365 898
e 365 492
e 368 860
e 368 554
e 368 385
e 368 912
e 369 673
e 369 651
e 369 430
e 369 594
e 369 627
e 370 636
e 370 509
e 370 478
e 370 674
e 371 416
e 371 395
e 371 815
e 371 587
e 371 391
e 372 443
e 374 668
e 374 479
e 375 516
e 375 502
e 376 931
e 376 766
e 378 701
e 378 993
e 378 769
e 378 523
e 379 494
e 379 745
e 380 911
e 380 701
e 380 593
e 380 599
e 380 857
e 380 947
e 381 630
e 381 971
e 381 397
e 382 776
e 383 684
e 383 468
e 384 446
e 384 818
e 385 881
e 385 409
e 386 600
e 386 663
e 386 845
e 386 457
e 387 889
e 387 523
e 387 954
e 388 444
e 388 699
e 388 555
e 390 443
e 390 459
e 390 633
e 391 641
e 391 892
e 391 821
e 392 815
e 392 691
e 392 700
e 393 447
e 394 537
e 394 840
e 394 895
e 394 775
e 396 453
e 397 663
e 397 916
e 398 908
e 398 902
e 399 920
e 399 1000
e 399 835
e 399 650
e 399 422
e 401 954
e 401 808
e 401 963
e 402 649
e 403 459
e 404 659
e 404 521
e 404 640
e 406 408
e 406 923
e 408 704
e 408 782
e 408 892
e 408 625
e 409 584
e 409 458
e 409 532
e 409 577
e 410 996
e 410 555
e 410 796
e 414 483
e 414 532
e 415 705
e 415 490
e 415 947
e 415 615
e 415 642
e 415 844
e 416 654
e 416 840
e 416 596
e 416 514
e 416 781
e 416 835
e 416 437
e 418 771
e 418 936
e 418 745
e 419 712
e 419 461
e 419 659
e 419 437
e 420 909
e 420 597
e 420 711
e 420 965
e 421 473
e 421 638
e 421 967
e 422 651
e 422 776
e 422 862
e 426 985
e 426 602
e 426 476
e 427 970
e 427 925
e 427 872
e 427 992
e 427 624
e 427 626
e 428 792
e 428 736
e 428 962
e 428 667
e 428 774
e 428 580
e 428 945
e 429 798
e 429 865
e 430 458
e 430 887
e 430 498
e 431 862
e 432 827
e 432 806
e 433 628
e 434 722
e 434 969
e 434 584
e 437 544
e 437 869
e 438 580
e 438 897
e 438 713
e 439 610
e 439 458
e 439 805
e 440 787
e 440 751
e 440 844
e 441 580
e 441 646
e 442 555
e 442 930
e 443 821
e 443 596
e 443 772
e 443 467
e 443 699
e 444 788
e 445 723
e 445 554
e 445 872
e 445 458
e 445 483
e 445 617
e 445 887
e 447 782
e 447 906
e 447 515
e 448 719
e 448 699
e 448 812
e 449 911
e 449 886
e 450 780
e 450 605
e 451 537
e 451 795
e 451 889
e 451 910
e 451 639
e 451 611
e 452 832
e 452 810
e 452 593
e 453 654
e 453 520
e 454 988
e 454 807
e 454 928
e 454 522
e 454 986
e 454 976
e 455 492
e 455 524
e 455 541
e 457 728
e 457 954
e 458 516
e 458 770
e 459 724
e 459 855
e 459 700
e 460 575
e 460 533
e 461 794
e 463 935
e 464 921
e 464 492
e 466 828
e 466 995
e 467 801
e 467 655
e 468 489
e 468 841
e 470 605
e 470 766
e 470 580
e 470 495
e 470 711
e 471 995
e 471 734
e 471 639
e 471 909
e 472 807
e 473 643
e 473 545
e 474 500
e 474 556
e 476 977
e 476 746
e 478 555
e 478 891
e 478 980
e 479 534
e 482 798
e 482 893
e 483 502
e 483 954
e 487 779
e 488 774
e 488 568
e 489 977
e 490 812
e 490 773
e 490 834
e 490 506
e 491 761
e 493 509
e 493 905
e 493 751
e 493 748
e 493 673
e 494 650
e 495 921
e 495 940
e 496 833
e 496 807
e 496 945
e 496 676
e 496 579
e 496 998
e 497 737
e 498 999
e 498 756
e 498 550
e 498 680
e 499 714
e 499 878
e 499 971
e 499 818
e 500 881
e 500 841
e 502 634
e 502 732
e 505 788
e 505 742
e 505 970
e 505 604
e 506 857
e 506 934
e 506 851
e 507 897
e 508 905
e 509 731
e 510 549
e 510 639
e 511 725
e 511 718
e 513 644
e 513 832
e 513 827
e 513 965
e 513 839
e 513 515
e 514 895
e 514 900
e 516 582
e 519 859
e 520 564
e 521 867
e 521 997
e 521 600
e 521 753
e 521 625
e 522 648
e 522 565
e 524 807
e 527 778
e 527 699
e 529 826
e 529 976
e 530 760
e 530 827
e 530 842
e 532 801
e 532 715
e 532 659
e 532 916
e 532 642
e 534 574
e 534 978
e 534 595
e 534 869
e 534 537
e 535 674
e 535 928
e 535 547
e 536 677
e 536 891
e 536 728
e 536 821
e 536 740
e 537 944
e 537 800
e 538 857
e 538 739
e 538 902
e 539 840
e 539 663
e 539 753
e 540 769
e 540 945
e 540 547
e 540 774
e 541 754
e 541 560
e 541 595
e 541 997
e 543 646
e 543 747
e 544 705
e 545 670
e 545 848
e 546 591
e 546 940
e 547 839
e 547 867
e 549 850
e 550 758
e 550 848
e 550 739
e 550 960
e 550 586
e 553 680
e 553 899
e 553 865
e 554 842
e 554 698
e 554 648
e 555 779
e 555 858
e 555 640
e 556 700
e 556 983
e 556 799
e 558 971
e 558 837
e 558 854
e 558 987
e 560 849
e 560 878
e 560 631
e 563 728
e 563 901
e 564 729
e 564 888
e 564 940
e 564 858
e 565 794
e 565 812
e 565 975
e 567 935
e 567 939
e 567 644
e 568 728
e 568 724
e 568 982
e 569 866
e 569 812
e 569 717
e 570 846
e 570 625
e 570 591
e 570 722
e 573 888
e 573 886
e 573 830
e 573 991
e 574 725
e 574 678
e 575 925
e 576 884
e 577 769
e 577 832
e 579 828
e 580 729
e 581 714
e 581 948
e 581 943
e 581 827
e 583 846
e 583 835
e 586 733
e 587 912
e 587 776
e 587 633
e 587 858
e 588 926
e 588 939
e 588 908
e 588 732
e 588 989
e 588 610
e 590 751
e 591 861
e 591 731
e 593 758
e 593 694
e 593 846
e 594 923
e 594 948
e 595 908
e 597 670
e 597 600
e 598 860
e 598 918
e 598 704
e 599 920
e 600 646
e 600 953
e 600 781
e 600 771
e 600 915
e 600 770
e 601 678
e 601 617
e 601 943
e 602 746
e 602 931
e 604 688
e 604 761
e 604 919
e 606 778
e 606 860
e 609 736
e 610 712
e 611 779
e 613 661
e 613 643
e 615 731
e 623 722
e 623 736
e 623 921
e 623 809
e 624 847
e 624 993
e 624 772
e 625 841
e 625 653
e 626 916
e 626 891
e 626 711
e 626 790
e 628 663
e 628 812
e 628 686
e 628 913
e 628 703
e 629 848
e 629 878
e 629 810
e 630 858
e 630 885
e 630 690
e 632 718
e 632 983
e 632 691
e 632 763
e 633 810
e 634 961
e 634 799
e 634 835
e 636 853
e 636 760
e 637 809
e 638 695
e 639 851
e 640 655
e 640 835
e 641 936
e 641 844
e 641 983
e 642 967
e 642 910
e 643 717
e 643 881
e 644 703
e 648 930
e 649 977
e 649 657
e 649 737
e 650 910
e 651 975
e 651 956
e 652 961
e 652 776
e 653 857
e 653 671
e 653 746
e 654 857
e 655 659
e 655 969
e 656 897
e 657 713
e 657 920
e 658 774
e 659 670
e 659 969
e 659 707
e 661 686
e 663 779
e 665 757
e 666 921
e 667 938
e 667 985
e 671 891
e 671 696
e 674 956
e 677 887
e 677 910
e 678 826
e 680 783
e 680 850
e 680 904
e 680 746
e 680 906
e 680 725
e 681 753
e 682 757
e 684 906
e 684 704
e 684 950
e 685 919
e 685 992
e 687 815
e 687 726
e 687 971
e 687 969
e 688 932
e 688 723
e 690 928
e 691 809
e 691 805
e 695 750
e 695 938
e 696 847
e 698 774
e 698 996
e 698 943
e 699 747
e 699 947
e 699 964
e 702 956
e 703 833
e 704 743
e 707 783
e 713 996
e 715 746
e 715 911
e 718 772
e 718 722
e 718 899
e 718 908
e 719 750
e 720 734
e 720 955
e 722 944
e 722 897
e 723 980
e 726 939
e 726 806
e 726 815
e 731 892
e 735 954
e 736 959
e 739 891
e 740 760
e 742 842
e 742 929
e 743 883
e 745 813
e 745 806
e 745 916
e 745 914
e 746 971
e 747 799
e 747 988
e 748 813
e 753 900
e 754 763
e 754 975
e 754 774
e 754 936
e 756 996
e 756 910
e 756 955
e 757 835
e 757 970
e 757 975
e 758 862
e 760 916
e 761 895
e 763 813
e 763 932
e 763 901
e 766 833
e 769 776
e 771 791
e 771 790
e 771 773
e 772 997
e 773 994
e 773 840
e 773 864
e 774 908
e 774 798
e 775 857
e 775 914
e 776 991
e 780 871
e 781 808
e 782 988
e 785 893
e 785 989
e 787 966
e 789 878
e 790 934
e 792 920
e 792 797
e 793 806
e 793 882
e 794 828
e 794 997
e 795 930
e 795 919
e 796 888
e 798 986
e 798 908
e 799 830
e 805 815
e 805 858
e 806 846
e 807 970
e 807 815
e 807 833
e 809 935
e 813 906
e 815 911
e 816 900
e 816 864
e 816 821
e 826 999
e 827 940
e 827 892
e 831 959
e 834 837
e 835 979
e 837 882
e 841 863
e 842 854
e 844 902
e 849 904
e 851 957
e 853 863
e 853 909
e 854 995
e 855 957
e 857 995
e 858 882
e 858 880
e 863 954
e 864 925
e 865 948
e 866 945
e 866 928
e 867 956
e 878 939
e 880 999
e 881 893
e 882 888
e 888 980
e 889 928
e 892 953
e 902 994
e 904 964
e 905 912
e 908 978
e 909 961
e 913 955
e 915 991
e 915 925
e 917 959
e 919 938
e 926 961
e 926 940
e 930 979
e 934 960
e 938 963
e 944 979
e 945 980
e 948 965
e 966 1000
e 967 983
e 969 989
e 970 972
e 977 1000
